false false false
presolving:
presolving (0 rounds: 0 fast, 0 medium, 0 exhaustive):
 0 deleted vars, 0 deleted constraints, 0 added constraints, 0 tightened bounds, 0 added holes, 0 changed sides, 0 changed coefficients
 0 implications, 0 cliques
presolved problem has 45 variables (45 bin, 0 int, 0 impl, 0 cont) and 39 constraints
     39 constraints of type <linear>
transformed objective value is always integral (scale: 1)
Presolving Time: 0.00

 time | node  | left  |LP iter|LP it/n|mem/heur|mdpt |vars |cons |rows |cuts |sepa|confs|strbr|  dualbound   | primalbound  |  gap   | compl. 
p 0.0s|     1 |     0 |     0 |     - |shiftand|   0 |  45 |  39 |  39 |   0 |  0 |   0 |   0 |      --      | 6.000000e+00 |    Inf | unknown
 time | node  | left  |LP iter|LP it/n|mem/heur|mdpt |vars |cons |rows |cuts |sepa|confs|strbr|  dualbound   | primalbound  |  gap   | compl. 
  0.2s|     1 |     0 |    18 |     - |  1180k |   0 | 162 |  39 |  39 |   0 |  0 |   0 |   0 | 1.000000e+00 | 6.000000e+00 | 500.00%| unknown
slurmstepd-htc-cmp446: error: *** JOB 16657420 ON htc-cmp446 CANCELLED AT 2024-01-28T04:35:05 DUE TO TIME LIMIT ***
